c azdaekjf
c ajfkaf
c fjag
p cnf 729 100000
1 82 163 244 325 406 487 568 649  0
-82 -1  0
-163 -1  0
-163 -82  0
-244 -1  0
-244 -82  0
-244 -163  0
-325 -1  0
-325 -82  0
-325 -163  0
-325 -244  0
-406 -1  0
-406 -82  0
-406 -163  0
-406 -244  0
-406 -325  0
-487 -1  0
-487 -82  0
-487 -163  0
-487 -244  0
-487 -325  0
-487 -406  0
-568 -1  0
-568 -82  0
-568 -163  0
-568 -244  0
-568 -325  0
-568 -406  0
-568 -487  0
-649 -1  0
-649 -82  0
-649 -163  0
-649 -244  0
-649 -325  0
-649 -406  0
-649 -487  0
-649 -568  0
10 91 172 253 334 415 496 577 658  0
-91 -10  0
-172 -10  0
-172 -91  0
-253 -10  0
-253 -91  0
-253 -172  0
-334 -10  0
-334 -91  0
-334 -172  0
-334 -253  0
-415 -10  0
-415 -91  0
-415 -172  0
-415 -253  0
-415 -334  0
-496 -10  0
-496 -91  0
-496 -172  0
-496 -253  0
-496 -334  0
-496 -415  0
-577 -10  0
-577 -91  0
-577 -172  0
-577 -253  0
-577 -334  0
-577 -415  0
-577 -496  0
-658 -10  0
-658 -91  0
-658 -172  0
-658 -253  0
-658 -334  0
-658 -415  0
-658 -496  0
-658 -577  0
19 100 181 262 343 424 505 586 667  0
82  0
413  0
500  0
339  0
179  0
263  0
588  0
671  0
25  0
193  0
199  0
41  0
693  0
618  0
57  0
140  0
385  0
548  0
632  0
553  0
230  0
722  0
324  0
